# Solution for model model4_UK10_01.txt
# Objective value = 1.0899567260341668e+04
x(5,6) 0
x(5,7) 0
x(5,8) 0
x(5,9) 0
x(5,10) 0
x(5,11) 1
x(5,1) 0
x(5,2) 0
x(5,3) 0
x(5,4) 0
x(5,13) 0
x(5,14) 0
x(5,15) 0
x(5,16) 0
x(5,12) 0
x(6,5) 0
x(6,7) 0
x(6,8) 0
x(6,9) 0
x(6,10) 0
x(6,11) 0
x(6,1) 0
x(6,2) 0
x(6,3) 0
x(6,4) 0
x(6,13) 0
x(6,14) 0
x(6,15) 0
x(6,16) 0
x(6,12) 1
x(7,5) 0
x(7,6) 0
x(7,8) 0
x(7,9) 0
x(7,10) 0
x(7,11) 0
x(7,1) 0
x(7,2) 0
x(7,3) 0
x(7,4) 0
x(7,13) 0
x(7,14) 0
x(7,15) 0
x(7,16) 0
x(7,12) 1
x(8,5) 0
x(8,6) 0
x(8,7) 0
x(8,9) 0
x(8,10) 0
x(8,11) 0
x(8,1) 0
x(8,2) 0
x(8,3) 1
x(8,4) 0
x(8,13) 0
x(8,14) 0
x(8,15) 0
x(8,16) 0
x(8,12) 0
x(9,5) 1
x(9,6) 0
x(9,7) 0
x(9,8) 0
x(9,10) 0
x(9,11) 0
x(9,1) 0
x(9,2) 0
x(9,3) 0
x(9,4) 0
x(9,13) 0
x(9,14) 0
x(9,15) 0
x(9,16) 0
x(9,12) 0
x(10,5) 0
x(10,6) 0
x(10,7) 0
x(10,8) 1
x(10,9) 0
x(10,11) 0
x(10,1) 0
x(10,2) 0
x(10,3) 0
x(10,4) 0
x(10,13) 0
x(10,14) 0
x(10,15) 0
x(10,16) 0
x(10,12) 0
x(11,5) 0
x(11,6) 0
x(11,7) 0
x(11,8) 0
x(11,9) 0
x(11,10) 1
x(11,1) 0
x(11,2) 0
x(11,3) 0
x(11,4) 0
x(11,13) 0
x(11,14) 0
x(11,15) 0
x(11,16) 0
x(11,12) 0
x(1,5) 0
x(1,6) 0
x(1,7) 0
x(1,8) 0
x(1,9) 0
x(1,10) 0
x(1,11) 0
x(1,2) 0
x(1,3) 0
x(1,4) 0
x(1,13) 0
x(1,14) 0
x(1,15) 0
x(1,16) 0
x(1,12) 0
x(2,5) 0
x(2,6) 0
x(2,7) 0
x(2,8) 0
x(2,9) 0
x(2,10) 0
x(2,11) 0
x(2,1) 0
x(2,3) 0
x(2,4) 0
x(2,13) 0
x(2,14) 0
x(2,15) 0
x(2,16) 0
x(2,12) 0
x(3,5) 0
x(3,6) 1
x(3,7) 0
x(3,8) 0
x(3,9) 0
x(3,10) 0
x(3,11) 0
x(3,1) 0
x(3,2) 0
x(3,4) 0
x(3,13) 0
x(3,14) 0
x(3,15) 0
x(3,16) 0
x(3,12) 0
x(4,5) 0
x(4,6) 0
x(4,7) 0
x(4,8) 0
x(4,9) 0
x(4,10) 0
x(4,11) 0
x(4,1) 0
x(4,2) 0
x(4,3) 0
x(4,13) 0
x(4,14) 0
x(4,15) 0
x(4,16) 0
x(4,12) 0
x(13,5) 0
x(13,6) 0
x(13,7) 0
x(13,8) 0
x(13,9) 0
x(13,10) 0
x(13,11) 0
x(13,1) 0
x(13,2) 0
x(13,3) 0
x(13,4) 0
x(13,14) 0
x(13,15) 0
x(13,16) 0
x(13,12) 0
x(14,5) 0
x(14,6) 0
x(14,7) 0
x(14,8) 0
x(14,9) 0
x(14,10) 0
x(14,11) 0
x(14,1) 0
x(14,2) 0
x(14,3) 0
x(14,4) 0
x(14,13) 0
x(14,15) 0
x(14,16) 0
x(14,12) 0
x(15,5) 0
x(15,6) 0
x(15,7) 0
x(15,8) 0
x(15,9) 0
x(15,10) 0
x(15,11) 0
x(15,1) 0
x(15,2) 0
x(15,3) 0
x(15,4) 0
x(15,13) 0
x(15,14) 0
x(15,16) 0
x(15,12) 0
x(16,5) 0
x(16,6) 0
x(16,7) 0
x(16,8) 0
x(16,9) 0
x(16,10) 0
x(16,11) 0
x(16,1) 0
x(16,2) 0
x(16,3) 0
x(16,4) 0
x(16,13) 0
x(16,14) 0
x(16,15) 0
x(16,12) 0
x(0,5) 0
x(0,6) 0
x(0,7) 1
x(0,8) 0
x(0,9) 1
x(0,10) 0
x(0,11) 0
x(0,1) 0
x(0,2) 0
x(0,3) 0
x(0,4) 0
x(0,13) 0
x(0,14) 0
x(0,15) 0
x(0,16) 0
x(0,12) 0
y(5) 1
y(6) 1
y(7) 1
y(8) 1
y(9) 1
y(10) 1
y(11) 1
y(1) 0
y(2) 0
y(3) 1
y(4) 0
t(5) 7.7289999999998263e+03
t(6) 24241
t(7) 2338
t(8) 20069
t(9) 3485
t(10) 1.4056999999999894e+04
t(11) 1.0220999999999894e+04
t(1) 24143
t(2) 32400
t(3) 21783
t(4) 1.1009999999999854e+03
t(13) 32400
t(14) 2.4893000000000029e+04
t(15) 1.7148999999999993e+04
t(16) 0
t(0) 0
t(12) 32400
d(5) 2.7389999999999891e+03
d(6) 311
d(7) 3.6499999999999968e+03
d(8) 8.2399999999998454e+02
d(9) 3650
d(10) 1.3819999999999791e+03
d(11) 2.0179999999999736e+03
d(1) 3650
d(2) 3.6499999999999982e+03
d(3) 3.1099999999999682e+02
d(4) 0
d(13) 3.6499999999999982e+03
d(14) 3650
d(15) 3.1099999999998090e+02
d(16) 0
d(0) 3650
d(12) 0
q(5) 1.1408000000000045e+05
q(6) 114570
q(7) 1.4508999999999985e+05
q(8) 17200
q(9) 134990
q(10) 23750
q(11) 87830
q(1) 0
q(2) 161000
q(3) 0
q(4) 0
q(13) 0
q(14) 1.4287702770998381e+05
q(15) 0
q(16) 0
q(0) 161000
q(12) 0
u(5) 1
u(6) 9.9999999988358446e-01
u(7) 1
u(8) 9.9999999924330019e-01
u(9) 1
u(10) 9.9999999895226210e-01
u(11) 9.9999999866122358e-01
u(1) 386813
u(2) 386814
u(3) 9.9999999988358446e-01
u(4) 0
u(13) 386814
u(14) 386814
u(15) 9.9999999912688509e-01
u(16) 0
u(12) 1
w(5) 0
w(6) 0
w(7) 0
w(8) 0
w(9) 3.4400000000003638e+03
w(10) 0
w(11) 0
z(0) 1
v(1) 0
v(2) 0
v(3) 161000
v(4) 0
v(13) 0
v(14) 0
v(15) 0
v(16) 0
depotCost 6301.36962890625
bssCost 6.8493148803710938e+01
vehicleFixedCost 1.9178081512451172e+01
drivingCost 4435.2756
brsEnergyCost 1.1007999721915693e+00
bssEnergyCost 2.4150001147063449e+01
bssUseCost 50
